(define-fun-rec
  v6
  ((x Int) (y Int) (z Int)) Int (ite (<= x 0) z (v6 (- x 1) y z)))
(define-fun-rec
  v2
  ((x Int) (y Int) (z Int)) Int (ite (<= x 0) z (v2 (- x 1) y z)))
(define-fun-rec
  u7
  ((x Int) (y Int)) Int (ite (<= x 0) y (* (u7 (- x 1) y) x)))
(define-fun-rec
  u6
  ((x Int) (y Int) (z Int)) Int
  (ite (<= x 0) y (* (u6 (- x 1) y z) (v6 (- x 1) y z))))
(define-fun-rec
  u5
  ((x Int) (y Int)) Int (ite (<= x 0) y (* (u5 (- x 1) y) x)))
(define-fun-rec
  u2
  ((x Int) (y Int) (z Int)) Int
  (ite (<= x 0) y (* (u2 (- x 1) y z) (v2 (- x 1) y z))))
(define-fun-rec
  u1
  ((x Int) (y Int)) Int (ite (<= x 0) y (* (u1 (- x 1) y) x)))
(define-fun
  h7
  ((x Int)) Int (+ 1 x))
(define-fun
  v7
  ((x Int)) Int (u7 x (h7 x)))
(define-fun
  w6
  ((x Int)) Int (u6 x 1 (v7 x)))
(define-fun
  h6
  ((x Int)) Int x)
(define-fun
  h2
  ((x Int)) Int x)
(define-fun
  h1
  ((x Int)) Int x)
(define-fun
  g7
  ((x Int)) Int x)
(define-fun
  g6
  ((x Int) (y Int)) Int y)
(define-fun
  g5
  ((x Int) (y Int)) Int (+ y y))
(define-fun
  v5
  ((x Int) (y Int)) Int (u5 (g5 x y) 1))
(define-fun
  g4
  ((x Int)) Int x)
(define-fun
  g3
  ((x Int)) Int x)
(define-fun
  g2
  ((x Int) (y Int)) Int y)
(define-fun
  g1
  ((x Int) (y Int)) Int (+ y y))
(define-fun
  v1
  ((x Int) (y Int)) Int (u1 (g1 x y) x))
(define-fun-rec
  u0
  ((x Int) (y Int)) Int (ite (<= x 0) y (v1 (u0 (- x 1) y) x)))
(define-fun
  v0
  ((x Int)) Int (u0 x 1))
(define-fun
  g0
  ((x Int)) Int x)
(define-fun
  f4
  ((x Int) (y Int)) Int (* (v5 x y) x))
(define-fun-rec
  u4
  ((x Int) (y Int)) Int (ite (<= x 0) y (f4 (u4 (- x 1) y) x)))
(define-fun
  v4
  ((x Int)) Int (u4 x 1))
(define-fun
  fast
  ((x Int)) Int (- (v4 x) (w6 x)))
(define-fun
  f3
  ((x Int) (y Int)) Int (+ (* x y) x))
(define-fun-rec
  u3
  ((x Int) (y Int)) Int (ite (<= x 0) y (f3 (u3 (- x 1) y) x)))
(define-fun
  v3
  ((x Int)) Int (u3 x 1))
(define-fun
  w2
  ((x Int)) Int (u2 x 1 (v3 x)))
(define-fun
  small
  ((x Int)) Int (- (v0 x) (w2 x)))
(assert-not
  (forall ((c Int)) (or (not (>= c 0)) (= (small c) (fast c)))))
